(declare-fun a () Real)
(declare-fun b () Real)
(assert (xor (>= b 0) (>= (+ (/ 5 b)) 2) (< a 0)))
(check-sat)
(assert (< (+ (* (- 6) a)) 4))
(check-sat)
(declare-fun a () Real)
(declare-fun b () Real)
(assert (xor (>= b 0) (>= (+ (/ 5 b)) 2) (< a 0)))
(check-sat)
(assert (< (+ (* (- 6) a)) 4))
(check-sat)
